115868
114667
116661
115237
116353
115604
113952
114199
115247
116947
217995
214534
215854
217836
215566
215762
215772
216336
217290
214624
301627
299985
304995
301935
304404
296894
303233
306944
303057
300460
